c Result of efficient AIG-to-CNF conversion using package CNF
p cnf 365 1256
2 333 334 -23 0
2 333 334 -3 0
-2 -333 0
-2 -334 0
-2 3 23 0
3 344 4 7 -13 0
-3 -344 0
-3 13 0
-3 -7 0
-3 -4 0
-4 5 6 0
4 -5 0
4 -6 0
-5 345 346 0
5 -345 0
5 -346 0
-6 347 348 0
6 -347 0
6 -348 0
-7 8 9 0
7 -8 0
7 -9 0
-8 349 350 351 352 0
8 -352 0
8 -351 0
8 -349 0
8 -350 0
-9 353 354 10 0
9 -10 0
9 -354 0
9 -353 0
-10 359 360 11 12 0
10 -359 0
10 -12 0
10 -11 0
10 -360 0
-11 357 358 0
11 -357 0
11 -358 0
-12 355 356 0
12 -355 0
12 -356 0
13 14 17 -18 21 0
-13 18 0
-13 -21 0
-13 -14 0
-13 -17 0
-14 342 343 15 0
14 -15 0
14 -343 0
14 -342 0
-15 337 338 339 16 0
15 -16 0
15 -339 0
15 -337 0
15 -338 0
-16 340 341 0
16 -340 0
16 -341 0
-17 335 336 0
17 -335 0
17 -336 0
18 361 -19 0
-18 -361 0
-18 19 0
19 362 -20 0
-19 -362 0
-19 20 0
20 -301 363 364 0
20 -333 363 364 0
-20 -364 0
-20 -363 0
-20 301 333 0
21 361 -22 0
-21 -361 0
-21 22 0
22 -301 362 363 364 0
-22 -364 0
-22 -363 0
-22 301 0
-22 -362 0
23 335 336 -231 0
23 335 336 -24 0
-23 -335 0
-23 -336 0
-23 24 231 0
24 360 25 -30 0
24 -360 25 -137 0
-24 -25 0
-24 -360 137 0
-24 360 30 0
-25 6 14 26 0
25 -6 0
25 -14 0
25 -26 0
-26 344 27 0
26 -344 0
26 -27 0
-27 359 5 28 29 0
27 -359 0
27 -29 0
27 -28 0
27 -5 0
-28 353 354 8 0
28 -8 0
28 -354 0
28 -353 0
-29 355 356 357 358 0
29 -358 0
29 -357 0
29 -355 0
29 -356 0
-30 31 125 0
-30 31 61 -104 0
30 -31 0
30 -61 -125 0
30 104 -125 0
31 361 -50 0
31 -361 -32 43 0
-31 361 50 0
-31 -361 32 0
-31 -361 -43 0
32 362 -33 0
32 -362 -38 0
-32 -362 38 0
-32 362 33 0
33 363 -34 0
33 -363 -36 0
-33 -363 36 0
-33 363 34 0
34 364 -35 0
34 -322 -364 0
34 -354 -364 0
-34 364 35 0
-34 322 354 -364 0
-35 323 355 0
35 -323 0
35 -355 0
36 364 -37 0
36 -320 -364 0
36 -352 -364 0
-36 364 37 0
-36 320 352 -364 0
-37 321 353 0
37 -321 0
37 -353 0
38 363 -39 0
38 -363 -41 0
-38 -363 41 0
-38 363 39 0
39 364 -40 0
39 -318 -364 0
39 -350 -364 0
-39 364 40 0
-39 318 350 -364 0
-40 319 351 0
40 -319 0
40 -351 0
41 364 -42 0
41 -316 -364 0
41 -348 -364 0
-41 364 42 0
-41 316 348 -364 0
-42 317 349 0
42 -317 0
42 -349 0
43 362 -44 0
43 -362 -47 0
-43 -362 47 0
-43 362 44 0
44 363 -45 0
44 -363 -46 0
-44 -363 46 0
-44 363 45 0
45 -323 364 0
45 -322 -364 0
-45 323 364 0
-45 322 -364 0
46 -321 364 0
46 -320 -364 0
-46 321 364 0
-46 320 -364 0
47 363 -48 0
47 -363 -49 0
-47 -363 49 0
-47 363 48 0
48 -319 364 0
48 -318 -364 0
-48 319 364 0
-48 318 -364 0
49 -317 364 0
49 -316 -364 0
-49 317 364 0
-49 316 -364 0
-50 362 363 0
-50 51 58 0
-50 363 51 0
-50 362 58 0
50 -362 -51 0
50 -363 -58 0
-51 363 55 0
-51 -363 52 0
51 -363 -52 0
51 363 -55 0
52 325 364 -53 0
52 324 -364 -53 0
-52 53 0
-52 -325 364 0
-52 -324 -364 0
53 -357 364 0
53 -364 -54 0
53 -325 364 0
-53 -364 54 0
-53 325 357 364 0
-54 324 356 0
54 -324 0
54 -356 0
55 327 364 -56 0
55 326 -364 -56 0
-55 56 0
-55 -327 364 0
-55 -326 -364 0
56 -359 364 0
56 -364 -57 0
56 -327 364 0
-56 -364 57 0
-56 327 359 364 0
-57 326 358 0
57 -326 0
57 -358 0
58 362 364 -60 0
58 362 -364 -59 0
-58 -362 0
-58 -364 59 0
-58 364 60 0
59 328 -360 0
-59 -328 0
-59 360 0
60 329 -361 0
-60 -329 0
-60 361 0
-61 62 77 86 0
-61 62 -82 86 0
61 -86 0
61 -62 0
61 -77 82 0
-62 362 70 0
-62 -362 63 0
62 -362 -63 0
62 362 -70 0
63 -363 -64 0
63 363 -67 69 0
-63 363 -69 0
-63 -363 64 0
-63 363 67 0
64 318 364 -65 0
64 317 -364 -65 0
-64 65 0
-64 -318 364 0
-64 -317 -364 0
65 364 -66 0
65 -317 -364 0
65 -349 -364 0
-65 364 66 0
-65 317 349 -364 0
-66 318 350 0
66 -318 0
66 -350 0
67 364 -68 0
67 -319 -364 0
67 -351 -364 0
-67 364 68 0
-67 319 351 -364 0
-68 320 352 0
68 -320 0
68 -352 0
69 -320 364 0
69 -319 -364 0
-69 320 364 0
-69 319 -364 0
70 363 -71 75 0
70 -363 -71 76 0
-70 71 0
-70 -363 -76 0
-70 363 -75 0
71 363 -72 0
71 -363 -73 0
-71 -363 73 0
-71 363 72 0
72 364 -54 0
72 -323 -364 0
72 -355 -364 0
-72 364 54 0
-72 323 355 -364 0
73 364 -74 0
73 -321 -364 0
73 -353 -364 0
-73 364 74 0
-73 321 353 -364 0
-74 322 354 0
74 -322 0
74 -354 0
75 -324 364 0
75 -323 -364 0
-75 324 364 0
-75 323 -364 0
76 -322 364 0
76 -321 -364 0
-76 322 364 0
-76 321 -364 0
-77 362 81 0
-77 -362 78 0
77 -362 -78 0
77 362 -81 0
78 363 -41 0
78 -363 -79 0
-78 -363 79 0
-78 363 41 0
79 364 -80 0
79 -314 -364 0
79 -346 -364 0
-79 364 80 0
-79 314 346 -364 0
-80 315 347 0
80 -315 0
80 -347 0
81 363 -36 0
81 -363 -39 0
-81 -363 39 0
-81 363 36 0
82 362 -83 0
82 -362 -84 0
-82 -362 84 0
-82 362 83 0
83 363 -46 0
83 -363 -48 0
-83 -363 48 0
-83 363 46 0
84 363 -49 0
84 -363 -85 0
-84 -363 85 0
-84 363 49 0
85 -315 364 0
85 -314 -364 0
-85 315 364 0
-85 314 -364 0
-86 -91 94 0
-86 87 -99 0
-86 87 94 0
-86 -91 -99 0
86 -87 91 0
86 -94 99 0
87 362 -38 0
87 -362 -88 0
-87 -362 88 0
-87 362 38 0
88 363 -79 0
88 -363 -89 0
-88 -363 89 0
-88 363 79 0
89 364 -90 0
89 -312 -364 0
89 -344 -364 0
-89 364 90 0
-89 312 344 -364 0
-90 313 345 0
90 -313 0
90 -345 0
91 362 -47 0
91 -362 -92 0
-91 -362 92 0
-91 362 47 0
92 363 -85 0
92 -363 -93 0
-92 -363 93 0
-92 363 85 0
93 -313 364 0
93 -312 -364 0
-93 313 364 0
-93 312 -364 0
94 362 -95 0
94 -362 -96 0
-94 -362 96 0
-94 362 95 0
95 -363 -67 0
95 363 -73 0
-95 363 73 0
-95 -363 67 0
96 363 -65 0
96 -363 -97 0
-96 -363 97 0
-96 363 65 0
97 364 -98 0
97 -315 -364 0
97 -347 -364 0
-97 364 98 0
-97 315 347 -364 0
-98 316 348 0
98 -316 0
98 -348 0
99 362 -100 0
99 -362 -101 0
-99 -362 101 0
-99 362 100 0
100 -363 -69 0
100 363 -76 0
-100 363 76 0
-100 -363 69 0
101 363 -102 0
101 -363 -103 0
-101 -363 103 0
-101 363 102 0
102 -318 364 0
102 -317 -364 0
-102 318 364 0
-102 317 -364 0
103 -316 364 0
103 -315 -364 0
-103 316 364 0
-103 315 -364 0
104 105 112 -117 0
104 -109 112 -117 0
-104 117 0
-104 -112 0
-104 -105 109 0
105 362 -78 0
105 -362 -106 0
-105 -362 106 0
-105 362 78 0
106 363 -89 0
106 -363 -107 0
-106 -363 107 0
-106 363 89 0
107 364 -108 0
107 -310 -364 0
107 -342 -364 0
-107 364 108 0
-107 310 342 -364 0
-108 311 343 0
108 -311 0
108 -343 0
109 362 -84 0
109 -362 -110 0
-109 -362 110 0
-109 362 84 0
110 363 -93 0
110 -363 -111 0
-110 -363 111 0
-110 363 93 0
111 -311 364 0
111 -310 -364 0
-111 311 364 0
-111 310 -364 0
112 362 -63 0
112 -362 -113 0
-112 -362 113 0
-112 362 63 0
113 -363 -114 0
113 363 -97 103 0
-113 -363 114 0
-113 363 97 0
-113 363 -103 0
114 314 364 -115 0
114 313 -364 -115 0
-114 115 0
-114 -314 364 0
-114 -313 -364 0
115 364 -116 0
115 -313 -364 0
115 -345 -364 0
-115 364 116 0
-115 313 345 -364 0
-116 314 346 0
116 -314 0
116 -346 0
117 -361 118 0
117 -361 -121 0
-117 361 0
-117 -118 121 0
-118 -362 119 0
-118 362 96 0
118 362 -96 0
118 -362 -119 0
119 363 -115 0
119 -363 -120 0
-119 -363 120 0
-119 363 115 0
120 -344 364 0
120 -364 -108 0
120 -312 364 0
-120 -364 108 0
-120 312 344 364 0
121 362 -101 0
121 -362 -122 0
-121 -362 122 0
-121 362 101 0
122 363 -123 0
122 -363 -124 0
-122 -363 124 0
-122 363 123 0
123 -314 364 0
123 -313 -364 0
-123 314 364 0
-123 313 -364 0
124 -312 364 0
124 -311 -364 0
-124 312 364 0
-124 311 -364 0
-125 -362 126 135 0
-125 362 126 134 0
125 -126 0
125 -362 -135 0
125 362 -134 0
-126 -363 127 131 0
-126 363 130 131 0
126 -131 0
126 -363 -127 0
126 363 -130 0
-127 -362 128 0
-127 55 128 129 0
127 -128 0
127 362 -55 0
127 362 -129 0
-128 -45 72 0
-128 34 -75 0
-128 34 72 0
-128 -45 -75 0
128 -34 45 0
128 -72 75 0
-129 364 59 0
-129 -327 -364 0
-129 359 -364 0
129 364 -59 0
129 327 -359 -364 0
-130 52 58 129 0
130 -129 0
130 -58 0
130 -52 0
-131 361 -364 132 0
-131 361 364 133 0
131 -361 0
131 -364 -132 0
131 364 -133 0
132 325 -357 0
-132 -325 0
-132 357 0
133 326 -358 0
-133 -326 0
-133 358 0
-134 361 51 0
-134 364 51 0
-134 -329 51 0
134 -51 0
134 329 -361 -364 0
-135 70 95 136 0
-135 70 -100 136 0
135 -70 0
135 -136 0
135 -95 100 0
-136 -44 81 0
-136 33 -83 0
-136 33 81 0
-136 -44 -83 0
136 -33 44 0
136 -81 83 0
-137 138 221 227 0
137 -138 0
137 -227 0
137 -221 0
138 -139 181 0
138 -361 181 0
138 -155 181 0
-138 -181 0
-138 361 139 155 0
-139 140 -151 0
-139 140 145 0
139 -140 0
139 -145 151 0
-140 -362 141 0
-140 362 113 0
140 362 -113 0
140 -362 -141 0
141 -363 -142 0
141 363 -120 124 0
-141 -363 142 0
-141 363 120 0
-141 363 -124 0
142 310 364 -143 0
142 309 -364 -143 0
-142 143 0
-142 -310 364 0
-142 -309 -364 0
143 364 -144 0
143 -309 -364 0
143 -341 -364 0
-143 364 144 0
-143 309 341 -364 0
-144 310 342 0
144 -310 0
144 -342 0
145 362 -106 0
145 -362 -146 0
-145 -362 146 0
-145 362 106 0
146 363 -147 0
146 -363 -149 0
-146 -363 149 0
-146 363 147 0
147 364 -148 0
147 -308 -364 0
147 -340 -364 0
-147 364 148 0
-147 308 340 -364 0
-148 309 341 0
148 -309 0
148 -341 0
149 -339 364 0
149 -364 -150 0
149 -307 364 0
-149 -364 150 0
-149 307 339 364 0
-150 306 338 0
150 -306 0
150 -338 0
151 362 -110 0
151 -362 -152 0
-151 -362 152 0
-151 362 110 0
152 363 -153 0
152 -363 -154 0
-152 -363 154 0
-152 363 153 0
153 -309 364 0
153 -308 -364 0
-153 309 364 0
-153 308 -364 0
154 -307 364 0
154 -306 -364 0
-154 307 364 0
-154 306 -364 0
-155 156 169 174 0
-155 156 169 -178 0
155 -156 0
155 -169 0
155 -174 178 0
-156 -159 161 0
-156 157 -165 0
-156 157 161 0
-156 -159 -165 0
156 -157 159 0
156 -161 165 0
157 362 -88 0
157 -362 -158 0
-157 -362 158 0
-157 362 88 0
158 363 -107 0
158 -363 -147 0
-158 -363 147 0
-158 363 107 0
159 362 -92 0
159 -362 -160 0
-159 -362 160 0
-159 362 92 0
160 363 -111 0
160 -363 -153 0
-160 -363 153 0
-160 363 111 0
161 362 -119 0
161 -362 -162 0
-161 -362 162 0
-161 362 119 0
162 363 -143 0
162 -363 -163 0
-162 -363 163 0
-162 363 143 0
163 364 -164 0
163 -307 -364 0
163 -339 -364 0
-163 364 164 0
-163 307 339 -364 0
-164 308 340 0
164 -308 0
164 -340 0
165 362 -122 0
165 -362 -166 0
-165 -362 166 0
-165 362 122 0
166 363 -167 0
166 -363 -168 0
-166 -363 168 0
-166 363 167 0
167 -310 364 0
167 -309 -364 0
-167 310 364 0
-167 309 -364 0
168 -308 364 0
168 -307 -364 0
-168 308 364 0
-168 307 -364 0
169 362 -141 0
169 -362 -170 172 0
-169 -362 170 0
-169 362 141 0
-169 -362 -172 0
170 363 -163 0
170 -363 -171 0
-170 -363 171 0
-170 363 163 0
171 364 -150 0
171 -305 -364 0
171 -337 -364 0
-171 364 150 0
-171 305 337 -364 0
172 363 -168 0
172 -363 -173 0
-172 -363 173 0
-172 363 168 0
173 -306 364 0
173 -305 -364 0
-173 306 364 0
-173 305 -364 0
174 362 -158 0
174 -362 -175 0
-174 -362 175 0
-174 362 158 0
175 363 -149 0
175 -363 -176 0
-175 -363 176 0
-175 363 149 0
176 364 -177 0
176 -304 -364 0
176 -336 -364 0
-176 364 177 0
-176 304 336 -364 0
-177 305 337 0
177 -305 0
177 -337 0
178 362 -160 0
178 -362 -179 0
-178 -362 179 0
-178 362 160 0
179 363 -154 0
179 -363 -180 0
-179 -363 180 0
-179 363 154 0
180 -305 364 0
180 -304 -364 0
-180 305 364 0
-180 304 -364 0
181 -182 209 215 0
181 -182 -212 215 0
-181 -215 0
-181 182 0
-181 -209 212 0
182 -361 183 192 203 0
-182 -203 0
-182 -192 0
-182 361 0
-182 -183 0
183 -184 188 0
-183 184 0
-183 -188 0
184 -362 -20 0
184 362 -185 0
-184 362 185 0
-184 -362 20 0
185 363 -176 0
185 -363 -186 0
-185 -363 186 0
-185 363 176 0
186 364 -187 0
186 -302 -364 0
186 -334 -364 0
-186 364 187 0
-186 302 334 -364 0
-187 303 335 0
187 -303 0
187 -335 0
188 -362 -189 0
188 362 -190 0
-188 362 190 0
-188 -362 189 0
189 -301 363 364 0
-189 301 0
-189 -364 0
-189 -363 0
190 363 -180 0
190 -363 -191 0
-190 -363 191 0
-190 363 180 0
191 -303 364 0
191 -302 -364 0
-191 303 364 0
-191 302 -364 0
192 -193 199 0
-192 193 0
-192 -199 0
193 362 -194 0
-193 -362 0
-193 194 0
194 363 -195 0
194 -363 -197 0
-194 -363 197 0
-194 363 195 0
195 364 -196 0
195 -303 -364 0
195 -335 -364 0
-195 364 196 0
-195 303 335 -364 0
-196 304 336 0
196 -304 0
196 -336 0
197 364 -198 0
197 -301 -364 0
197 -333 -364 0
-197 364 198 0
-197 301 333 -364 0
-198 302 334 0
198 -302 0
198 -334 0
199 362 -200 0
-199 -362 0
-199 200 0
200 363 -201 0
200 -363 -202 0
-200 -363 202 0
-200 363 201 0
201 -304 364 0
201 -303 -364 0
-201 304 364 0
-201 303 -364 0
202 -302 364 0
202 -301 -364 0
-202 302 364 0
-202 301 -364 0
203 -204 207 0
-203 204 0
-203 -207 0
204 362 -205 0
-204 -362 0
-204 205 0
205 -363 -206 0
205 363 -186 0
-205 363 186 0
-205 -363 206 0
206 -301 364 0
206 -333 364 0
-206 -364 0
-206 301 333 0
207 362 -208 0
-207 -362 0
-207 208 0
208 363 -191 0
208 -301 -363 364 0
-208 363 191 0
-208 -363 -364 0
-208 301 -363 0
209 362 -210 0
209 -362 -211 0
-209 -362 211 0
-209 362 210 0
210 363 -171 0
210 -363 -195 0
-210 -363 195 0
-210 363 171 0
211 363 -197 0
-211 -363 0
-211 197 0
212 362 -213 0
212 -362 -214 0
-212 -362 214 0
-212 362 213 0
213 363 -173 0
213 -363 -201 0
-213 -363 201 0
-213 363 173 0
214 -301 363 -364 0
214 -302 363 364 0
-214 -363 0
-214 301 -364 0
-214 302 364 0
-215 -217 218 0
-215 216 218 0
215 -218 0
215 -216 217 0
216 362 -175 0
216 -362 -205 0
-216 -362 205 0
-216 362 175 0
217 362 -179 0
217 -362 -208 0
-217 -362 208 0
-217 362 179 0
218 -219 220 0
-218 219 0
-218 -220 0
219 362 -170 0
219 -362 -194 0
-219 -362 194 0
-219 362 170 0
220 362 -172 0
220 -362 -200 0
-220 -362 200 0
-220 362 172 0
221 361 -224 0
221 -361 -222 223 0
-221 -361 -223 0
-221 361 224 0
-221 -361 222 0
222 362 -211 0
-222 -362 0
-222 211 0
223 362 -214 0
-223 -362 0
-223 214 0
224 -225 226 0
-224 225 0
-224 -226 0
225 362 -162 0
225 -362 -210 0
-225 -362 210 0
-225 362 162 0
226 362 -166 0
226 -362 -213 0
-226 -362 213 0
-226 362 166 0
227 -361 22 -228 0
227 361 -228 230 0
-227 228 0
-227 361 -230 0
-227 -361 -22 0
228 -361 -19 0
228 361 -229 0
-228 361 229 0
-228 -361 19 0
229 362 -146 0
229 -362 -185 0
-229 -362 185 0
-229 362 146 0
230 362 -152 0
230 -362 -190 0
-230 -362 190 0
-230 362 152 0
-231 232 237 242 273 0
231 -273 0
231 -232 0
231 -242 0
231 -237 0
-232 -233 0
-232 183 219 0
-232 183 -220 0
232 -183 233 0
232 -219 220 233 0
-233 361 234 0
233 -361 0
233 -234 0
-234 346 10 14 235 0
234 -346 0
234 -235 0
234 -14 0
234 -10 0
-235 344 345 236 0
235 -236 0
235 -345 0
235 -344 0
-236 6 28 0
236 -6 0
236 -28 0
-237 203 238 0
-237 -233 238 0
-237 -199 203 233 0
237 -203 233 0
237 -233 -238 0
237 199 -238 0
238 361 7 -193 239 0
-238 -361 0
-238 -239 0
-238 193 0
-238 -7 0
-239 5 240 241 0
239 -5 0
239 -240 0
239 -241 0
-240 337 338 339 6 0
240 -6 0
240 -339 0
240 -337 0
240 -338 0
-241 342 343 344 16 0
241 -16 0
241 -344 0
241 -342 0
241 -343 0
-242 243 246 0
-242 -14 246 0
-242 -245 246 0
242 -246 0
242 14 -243 245 0
243 344 -138 244 0
-243 -244 0
-243 138 0
-243 -344 0
-244 349 350 4 0
244 -4 0
244 -350 0
244 -349 0
-245 351 352 9 0
245 -9 0
245 -352 0
245 -351 0
-246 247 255 0
-246 -240 255 0
-246 -252 255 0
246 -255 0
246 240 -247 252 0
247 248 16 26 -249 0
-247 -26 0
-247 249 0
-247 -248 0
-247 -16 0
-248 342 343 0
248 -342 0
248 -343 0
-249 360 250 0
-249 -360 251 0
249 -360 -251 0
249 360 -250 0
-250 -361 157 0
-250 361 32 0
250 361 -32 0
250 -361 -157 0
251 361 -216 0
-251 -361 0
-251 216 0
252 -360 25 -254 0
252 360 25 -253 0
-252 -25 0
-252 -360 254 0
-252 360 253 0
-253 -361 159 0
-253 361 43 0
253 361 -43 0
253 -361 -159 0
254 361 -217 0
-254 -361 0
-254 217 0
-255 -234 256 263 0
-255 227 256 263 0
255 -263 0
255 -256 0
255 -227 234 0
256 244 257 -258 260 0
-256 258 0
-256 -260 0
-256 -244 0
-256 -257 0
-257 342 343 344 15 0
257 -15 0
257 -344 0
257 -342 0
257 -343 0
258 245 -259 0
-258 -245 0
-258 259 0
259 361 -222 0
-259 -361 0
-259 222 0
260 361 10 241 -261 0
-260 -361 0
-260 261 0
-260 -241 0
-260 -10 0
261 5 -223 236 262 0
-261 -262 0
-261 -5 0
-261 -236 0
-261 223 0
-262 337 338 339 0
262 -337 0
262 -339 0
262 -338 0
-263 264 269 0
-263 -25 269 0
-263 -267 269 0
263 -269 0
263 25 -264 267 0
264 -87 266 0
264 -265 266 0
-264 -266 0
-264 87 265 0
-265 360 361 0
265 -360 0
265 -361 0
-266 361 -204 0
-266 360 -174 0
-266 360 361 0
266 -361 174 0
266 -360 204 0
266 -360 -361 0
267 -178 -268 0
267 361 -268 0
-267 268 0
-267 -361 178 0
268 360 -91 0
268 -360 361 -207 0
268 360 -361 0
-268 -360 -361 0
-268 -360 207 0
-268 360 361 91 0
-269 251 270 0
-269 -254 270 0
-269 -234 270 0
269 -270 0
269 234 -251 254 0
270 234 -271 272 0
-270 -234 0
-270 271 0
-270 -272 0
271 361 -209 0
-271 -361 0
-271 209 0
272 361 -212 0
-272 -361 0
-272 212 0
-273 221 274 0
-273 -7 274 0
-273 -239 274 0
273 -274 0
273 7 -221 239 0
-274 275 278 282 0
-274 275 -280 282 0
274 -275 0
274 -282 0
274 -278 280 0
275 360 -276 0
275 361 -192 -276 0
-275 276 0
-275 -360 192 0
-275 -360 -361 0
276 25 -277 0
-276 -25 0
-276 277 0
277 -360 361 0
277 -361 -169 0
277 361 -112 0
-277 -361 169 0
-277 360 361 112 0
278 360 25 -279 0
278 -360 25 -271 0
-278 -25 0
-278 360 279 0
-278 -360 271 0
-279 -361 161 0
-279 361 94 0
279 361 -94 0
279 -361 -161 0
280 360 25 -281 0
280 -360 25 -272 0
-280 -25 0
-280 -360 272 0
-280 360 281 0
281 361 -99 0
281 -361 -165 0
-281 -361 165 0
-281 361 99 0
-282 283 292 299 0
-282 -25 283 292 0
282 -292 0
282 -283 0
282 25 -299 0
283 25 -284 0
283 25 288 -290 0
-283 -25 0
-283 284 290 0
-283 284 -288 0
284 360 285 -287 0
284 -360 -259 285 0
-284 -285 0
-284 -360 259 0
-284 360 287 0
285 360 -286 0
285 361 -223 -286 0
-285 286 0
-285 -360 223 0
-285 -360 -361 0
286 -360 361 0
286 -361 -226 0
286 361 -121 0
-286 -361 226 0
-286 360 361 121 0
287 -361 -225 0
287 361 -118 0
-287 361 118 0
-287 -361 225 0
-288 -360 -361 0
-288 360 289 0
-288 -360 188 0
288 360 -289 0
288 -360 361 -188 0
-289 -361 151 0
-289 361 82 0
289 361 -82 0
289 -361 -151 0
290 360 -291 0
290 -360 361 -184 0
-290 -360 -361 0
-290 360 291 0
-290 -360 184 0
291 -361 -145 0
291 361 -77 0
-291 361 77 0
-291 -361 145 0
292 -360 294 296 0
292 -293 294 296 0
-292 -294 0
-292 -296 0
-292 360 293 0
293 361 -105 0
293 -361 -229 0
-293 -361 229 0
-293 361 105 0
-294 359 5 257 295 0
294 -359 0
294 -295 0
294 -257 0
294 -5 0
-295 360 29 236 0
-295 -18 29 236 0
295 -236 0
295 -29 0
295 -360 18 0
296 361 297 -298 0
296 -230 297 -298 0
-296 298 0
-296 -297 0
-296 -361 230 0
-297 -21 257 0
-297 360 257 0
297 -257 0
297 -360 21 0
298 6 27 -265 0
298 6 27 -109 0
-298 -6 0
-298 -27 0
-298 109 265 0
-299 -360 -361 0
-299 360 300 0
-299 -360 218 0
299 360 -300 0
299 -360 361 -218 0
-300 361 62 0
-300 -361 140 0
300 -361 -140 0
300 361 -62 0
-365 0
2 0

